
Gurobi 9.0.2 (linux64) logging started Mon May 25 08:38:52 2020

Changed value of parameter LogFile to gurobi_logs/2020-05-25_08:38:52-rproblem1_implicit_mode=implicit_implicit_shifts.log
   Prev:   Default: 
Parameter MIPFocus unchanged
   Value: 0  Min: 0  Max: 3  Default: 0
Parameter SolutionLimit unchanged
   Value: 2000000000  Min: 1  Max: 2000000000  Default: 2000000000
Parameter LogToConsole unchanged
   Value: 1  Min: 0  Max: 1  Default: 1
Changed value of parameter TimeLimit to 18000.0
   Prev: inf  Min: 0.0  Max: inf  Default: inf
Gurobi Optimizer version 9.0.2 build v9.0.2rc0 (linux64)
Optimize a model with 358590 rows, 994253 columns and 48283564 nonzeros
Model fingerprint: 0xb0c44a1e
Variable types: 29 continuous, 994224 integer (993006 binary)
Coefficient statistics:
  Matrix range     [2e-02, 1e+03]
  Objective range  [2e-01, 1e+00]
  Bounds range     [1e+00, 1e+00]
  RHS range        [2e-01, 1e+03]
Presolve removed 7652 rows and 6698 columns (presolve time = 5s) ...
Presolve removed 7940 rows and 287949 columns (presolve time = 11s) ...
Presolve removed 7940 rows and 589540 columns (presolve time = 24s) ...
Presolve removed 7940 rows and 589540 columns (presolve time = 25s) ...
Presolve removed 7949 rows and 589549 columns (presolve time = 33s) ...
Presolve removed 7949 rows and 589549 columns (presolve time = 35s) ...
Presolve removed 8671 rows and 590289 columns (presolve time = 42s) ...
Presolve removed 10685 rows and 592303 columns (presolve time = 57s) ...
Presolve removed 10685 rows and 592303 columns (presolve time = 65s) ...
Presolve removed 10685 rows and 592303 columns (presolve time = 65s) ...
Presolve removed 10685 rows and 592303 columns (presolve time = 70s) ...
Presolve removed 10685 rows and 592303 columns (presolve time = 264s) ...
Presolve removed 11046 rows and 592851 columns (presolve time = 277s) ...
Presolve removed 6753 rows and 588558 columns
Presolve time: 276.55s
Presolved: 351837 rows, 405695 columns, 12000135 nonzeros
Variable types: 1 continuous, 405694 integer (401752 binary)

Deterministic concurrent LP optimizer: primal simplex, dual simplex, and barrier
Showing barrier log only...

Root barrier log...

Elapsed ordering time = 5s
Elapsed ordering time = 10s
Elapsed ordering time = 15s
Elapsed ordering time = 20s
Elapsed ordering time = 25s
Ordering time: 27.42s

Barrier statistics:
 Dense cols : 3240
 AA' NZ     : 2.252e+07
 Factor NZ  : 3.360e+07 (roughly 600 MBytes of memory)
 Factor Ops : 1.487e+10 (less than 1 second per iteration)
 Threads    : 21

                  Objective                Residual
Iter       Primal          Dual         Primal    Dual     Compl     Time
   0   3.15005875e+07  1.34152894e+06  4.08e+05 1.80e+01  3.15e+03   332s
   1   2.20206649e+07  2.40868203e+07  2.85e+05 6.01e+00  2.21e+03   333s
   2   9.83390290e+06  4.01521868e+07  1.26e+05 1.38e+01  1.01e+03   334s
   3   2.26369096e+06  5.53831821e+07  2.91e+04 6.89e-03  2.48e+02   335s
   4   1.34622908e+06  2.99596584e+07  1.74e+04 4.94e-04  1.27e+02   336s
   5   6.67182630e+05  1.18250565e+07  8.64e+03 1.76e-03  5.38e+01   337s
   6   3.93774256e+05  4.99459796e+06  5.10e+03 8.29e-04  2.84e+01   337s
   7   1.21875374e+05  1.28272863e+06  1.58e+03 2.59e-04  8.22e+00   338s
   8   5.45290089e+04  4.16813104e+05  7.10e+02 7.26e-05  3.48e+00   339s
   9   1.90653087e+04  2.73184107e+05  2.48e+02 4.11e-05  1.33e+00   339s
  10   3.00527097e+03  1.66827712e+05  3.67e+01 2.39e-05  3.04e-01   340s
  11   8.45762198e+02  8.04456532e+04  8.06e+00 1.09e-05  1.04e-01   341s
  12   5.43455256e+02  6.10318169e+04  4.04e+00 8.05e-06  6.94e-02   342s
  13   4.19218391e+02  4.45927481e+04  2.38e+00 5.72e-06  4.77e-02   342s
  14   2.98289715e+02  2.00669305e+04  7.69e-01 2.32e-06  1.96e-02   343s
  15   2.59304797e+02  8.00125191e+03  2.38e-01 8.16e-07  7.19e-03   343s
  16   2.47431256e+02  2.04410868e+03  5.48e-02 2.07e-07  1.62e-03   344s
  17   2.51645170e+02  8.55642840e+02  1.81e-02 5.33e-07  5.39e-04   345s
  18   2.76442441e+02  5.64627093e+02  4.33e-03 2.97e-07  2.53e-04   346s
  19   2.85444539e+02  4.74348009e+02  3.48e-03 1.95e-07  1.67e-04   346s
  20   3.11996750e+02  4.01766179e+02  1.67e-03 2.22e-07  7.94e-05   347s
  21   3.25854029e+02  3.80306164e+02  6.18e-04 1.34e-06  4.78e-05   348s
  22   3.31029668e+02  3.56335614e+02  3.44e-04 1.18e-06  2.23e-05   349s
  23   3.34674484e+02  3.53957606e+02  1.73e-04 2.16e-06  1.69e-05   349s
  24   3.37074987e+02  3.45032283e+02  7.40e-05 1.23e-06  6.98e-06   350s
  25   3.37771112e+02  3.41180242e+02  4.70e-05 4.13e-07  3.01e-06   351s
  26   3.38850020e+02  3.40029083e+02  8.74e-06 1.94e-06  1.03e-06   352s
  27   3.39146259e+02  3.39224892e+02  4.24e-07 7.59e-07  6.87e-08   353s
  28   3.39149273e+02  3.39224705e+02  3.77e-07 2.66e-06  6.59e-08   354s
  29   3.39149567e+02  3.39224527e+02  3.72e-07 5.94e-06  6.55e-08   355s
  30   3.39154514e+02  3.39223873e+02  2.92e-07 1.09e-05  6.05e-08   356s
  31   3.39158661e+02  3.39218186e+02  2.27e-07 1.18e-05  5.20e-08   357s
  32   3.39160212e+02  3.39216818e+02  2.03e-07 3.32e-05  4.95e-08   358s
  33   3.39160532e+02  3.39216230e+02  1.98e-07 6.81e-05  4.88e-08   359s
  34   3.39161183e+02  3.39214051e+02  1.88e-07 9.82e-05  4.69e-08   360s
  35   3.39161737e+02  3.39212968e+02  1.79e-07 2.31e-04  4.55e-08   362s
  36   3.39163744e+02  3.39197347e+02  1.50e-07 1.38e-04  2.95e-08   363s
  37   3.39164159e+02  3.39196797e+02  1.43e-07 1.35e-04  2.87e-08   364s
  38   3.39164196e+02  3.39196642e+02  1.42e-07 1.34e-04  2.85e-08   366s
  39   3.39165171e+02  3.39193782e+02  1.27e-07 1.18e-04  2.51e-08   367s
  40   3.39166910e+02  3.39190355e+02  1.37e-07 1.00e-04  2.08e-08   368s
  41   3.39167459e+02  3.39188893e+02  1.25e-07 9.19e-05  1.91e-08   370s
  42   3.39167711e+02  3.39188584e+02  1.19e-07 8.98e-05  1.85e-08   371s
  43   3.39167780e+02  3.39188389e+02  1.18e-07 1.45e-04  1.83e-08   372s
  44   3.39168061e+02  3.39187502e+02  1.12e-07 1.36e-04  1.72e-08   373s
  45   3.39168167e+02  3.39187239e+02  1.10e-07 1.38e-04  1.68e-08   374s
  46   3.39169901e+02  3.39185087e+02  7.71e-08 1.47e-04  1.35e-08   375s
  47   3.39170344e+02  3.39183602e+02  6.57e-08 3.25e-04  1.17e-08   377s
  48   3.39170349e+02  3.39183328e+02  8.23e-08 4.82e-04  1.17e-08   378s
  49   3.39170398e+02  3.39182733e+02  8.09e-08 4.38e-04  1.17e-08   379s
  50   3.39170966e+02  3.39181212e+02  6.46e-08 5.32e-04  1.11e-08   380s
  51   3.39171068e+02  3.39180735e+02  6.15e-08 4.95e-04  1.04e-08   382s
  52   3.39171165e+02  3.39180548e+02  5.88e-08 4.83e-04  1.02e-08   383s
  53   3.39171166e+02  3.39180548e+02  5.88e-08 6.95e-04  1.02e-08   384s
  54   3.39171166e+02  3.39180548e+02  7.64e-08 6.95e-04  1.02e-08   385s
  55   3.39171166e+02  3.39180508e+02  7.75e-08 6.95e-04  1.02e-08   386s
  56   3.39171166e+02  3.39180505e+02  9.06e-08 6.94e-04  1.01e-08   387s
  57   3.39171166e+02  3.39180505e+02  7.74e-08 6.94e-04  1.01e-08   389s
  58   3.39171164e+02  3.39180452e+02  7.72e-08 6.86e-04  1.01e-08   390s
  59   3.39172763e+02  3.39174897e+02  3.42e-08 1.57e-04  2.30e-09   391s
  60   3.39172764e+02  3.39174905e+02  3.42e-08 1.57e-04  2.30e-09   392s
  61   3.39172764e+02  3.39174898e+02  3.49e-08 3.34e-04  2.30e-09   393s
  62   3.39172764e+02  3.39174912e+02  3.49e-08 3.34e-04  2.30e-09   394s
  63   3.39172764e+02  3.39174911e+02  2.53e-07 6.09e-04  2.30e-09   396s
  64   3.39172763e+02  3.39174336e+02  3.41e-07 6.39e-04  2.30e-09   397s
  65   3.39172763e+02  3.39174328e+02  3.42e-07 6.38e-04  2.30e-09   398s
  66   3.39172764e+02  3.39174313e+02  3.42e-07 1.15e-03  2.30e-09   399s
  67   3.39172764e+02  3.39174305e+02  3.41e-07 1.15e-03  2.29e-09   401s
  68   3.39172764e+02  3.39174328e+02  3.41e-07 1.49e-03  2.29e-09   402s
  69   3.39172764e+02  3.39174317e+02  3.41e-07 1.48e-03  2.29e-09   403s

Barrier performed 69 iterations in 403.21 seconds
Sub-optimal termination - objective 3.39146259e+02


Root crossover log...

    3277 DPushes remaining with DInf 0.0000000e+00               406s
    1172 DPushes remaining with DInf 0.0000000e+00               411s
     312 DPushes remaining with DInf 0.0000000e+00               416s
       0 DPushes remaining with DInf 0.0000000e+00               418s

   31363 PPushes remaining with PInf 6.4499183e-02               418s
    7244 PPushes remaining with PInf 2.7131942e-04               469s
    5144 PPushes remaining with PInf 1.1590253e-04               483s
     291 PPushes remaining with PInf 1.0367510e-04               524s
       0 PPushes remaining with PInf 0.0000000e+00               527s

  Push phase complete: Pinf 0.0000000e+00, Dinf 1.8466636e+02    527s


Root simplex log...

Iteration    Objective       Primal Inf.    Dual Inf.      Time
   35013    3.3917323e+02   0.000000e+00   1.846664e+02    528s
   35061    3.3917323e+02   0.000000e+00   0.000000e+00    530s
Concurrent spin time: 81.64s (can be avoided by choosing Method=3)

Solved with barrier

Root relaxation: objective 3.391732e+02, 35061 iterations, 319.45 seconds
Total elapsed time = 745.61s
Total elapsed time = 775.34s

    Nodes    |    Current Node    |     Objective Bounds      |     Work
 Expl Unexpl |  Obj  Depth IntInf | Incumbent    BestBd   Gap | It/Node Time

     0     0  339.14456    0 2739          -  339.14456      -     -  878s
     0     0  339.13748    0 3347          -  339.13748      -     - 1032s
     0     0  339.13748    0 3159          -  339.13748      -     - 1076s
     0     0  339.08100    0 3512          -  339.08100      -     - 1247s
H    0     0                     256.2140513  339.08100  32.3%     - 1295s
H    0     0                     338.9061995  339.08100  0.05%     - 1907s
     0     0  339.08100    0 3919  338.90620  339.08100  0.05%     - 1912s
     0     0  339.08100    0 3244  338.90620  339.08100  0.05%     - 2724s
     0     0  339.08100    0  798  338.90620  339.08100  0.05%     - 2985s
     0     0  339.05813    0 1054  338.90620  339.05813  0.04%     - 2992s
     0     0  339.05813    0 1011  338.90620  339.05813  0.04%     - 2994s
     0     0  339.04289    0 1107  338.90620  339.04289  0.04%     - 2998s
     0     0  339.04188    0 1155  338.90620  339.04188  0.04%     - 2999s
     0     0  339.04154    0 1125  338.90620  339.04154  0.04%     - 3001s
     0     0  339.04154    0 1095  338.90620  339.04154  0.04%     - 3002s
     0     0  339.04154    0 1027  338.90620  339.04154  0.04%     - 3003s
     0     0  339.04154    0 1106  338.90620  339.04154  0.04%     - 3006s
     0     0  339.04154    0  716  338.90620  339.04154  0.04%     - 3019s
     0     0  339.04154    0  835  338.90620  339.04154  0.04%     - 3031s
     0     0  339.04154    0  864  338.90620  339.04154  0.04%     - 3040s
     0     0  339.04154    0  836  338.90620  339.04154  0.04%     - 3042s
     0     0  339.04154    0  872  338.90620  339.04154  0.04%     - 3050s
     0     0  339.04154    0  804  338.90620  339.04154  0.04%     - 3068s
     0     0  339.04154    0  804  338.90620  339.04154  0.04%     - 3075s
     0     2  339.04154    0  804  338.90620  339.04154  0.04%     - 3097s
    15    27  339.01923    4  756  338.90620  339.02852  0.04%  1022 3106s
    31    46  339.01222    5  701  338.90620  339.02852  0.04%   885 3111s
    79    84  338.99095    7 1066  338.90620  339.02784  0.04%   573 3117s
   103   103  338.99095    8  903  338.90620  339.02784  0.04%   556 3133s
   127   123  338.99095    9 1003  338.90620  339.02784  0.04%   835 3145s
   158   148  338.99095   10 1174  338.90620  339.02784  0.04%   904 3151s
   189   178  338.99095   11 1055  338.90620  339.02784  0.04%   859 3161s
   224   208  338.99095   12 1020  338.90620  339.02784  0.04%   828 3165s
   294   255  338.98651   15 1252  338.90620  339.02784  0.04%   764 3195s
H  304   255                     338.9111708  339.02784  0.03%   749 3195s
   321   275  338.97428   16 1083  338.91117  339.02784  0.03%   724 3200s
   425   321  338.95762   17 1017  338.91117  339.02784  0.03%   667 3208s
   464   356  338.93664   18  976  338.91117  339.02784  0.03%   690 3216s
   541   354  338.93044   19  924  338.91117  339.02784  0.03%   699 3224s
   629   346 infeasible   23       338.91117  339.02784  0.03%   708 3233s
   689   338  338.98948    7 1107  338.91117  339.02784  0.03%   774 3242s
   761   336     cutoff    8       338.91117  339.02784  0.03%   815 3251s
   812   344     cutoff    9       338.91117  339.02784  0.03%   878 3258s
   870   333  339.01998    8 1532  338.91117  339.02784  0.03%   899 3268s
   936   336     cutoff    9       338.91117  339.02784  0.03%   931 3276s
   984   332  339.00018    8  805  338.91117  339.02784  0.03%   964 3286s
  1038   348  338.99256   10 1092  338.91117  339.02784  0.03%  1000 3303s
  1085   343 infeasible   11       338.91117  339.02784  0.03%  1099 3311s
  1147   332     cutoff   11       338.91117  339.02784  0.03%  1117 3321s
  1212   327  338.95043    9  987  338.91117  339.02784  0.03%  1151 3332s
  1274   312     cutoff   12       338.91117  339.02287  0.03%  1185 3340s
  1350   317  338.93053   15 1340  338.91117  339.02287  0.03%  1192 3351s
  1419   324  338.97121    9 1200  338.91117  339.00474  0.03%  1204 3372s
  1539   307 infeasible   10       338.91117  339.00474  0.03%  1238 3387s
  1611   322  338.94890   10 1321  338.91117  339.00474  0.03%  1278 3402s
  1693   303     cutoff   11       338.91117  339.00474  0.03%  1312 3416s
  1799   305  338.98054   15  953  338.91117  338.99630  0.03%  1325 3590s
  1842   277     cutoff   16       338.91117  338.99630  0.03%  1341 3609s
  1990   272     cutoff   18       338.91117  338.99133  0.02%  1350 3624s
  2091   256     cutoff    9       338.91117  338.98495  0.02%  1374 3641s
  2195   266 infeasible   12       338.91117  338.98180  0.02%  1390 3656s
  2311   207  338.94483    8 1069  338.91117  338.97888  0.02%  1402 3676s
  2490   188  338.91187   14 1168  338.91117  338.97756  0.02%  1399 3693s
  2620   152     cutoff    8       338.91117  338.97630  0.02%  1402 3708s
  2736   144     cutoff   10       338.91117  338.96628  0.02%  1411 3726s
  2848   118     cutoff   11       338.91117  338.96252  0.02%  1427 3746s
  2958    84     cutoff    8       338.91117  338.95834  0.01%  1439 3762s
  3092    39 infeasible   13       338.91117  338.94943  0.01%  1436 3777s
  3201    10 infeasible   13       338.91117  338.94596  0.01%  1437 3793s

Cutting planes:
  Cover: 32
  Implied bound: 3
  MIR: 15
  StrongCG: 1
  Inf proof: 40
  Zero half: 30
  RLT: 4

Explored 3269 nodes (4936890 simplex iterations) in 3794.35 seconds
Thread count was 24 (of 48 available processors)

Solution count 3: 338.911 338.906 256.214 

Optimal solution found (tolerance 1.00e-04)
Best objective 3.389111707826e+02, best bound 3.389403057742e+02, gap 0.0086%
